p tw 336 1024
1 33
2 34
3 35
4 36
5 37
6 38
7 39
8 40
9 41
10 42
11 43
12 44
13 45
14 46
15 47
16 48
17 49
18 50
19 51
20 52
21 53
22 54
23 55
24 56
25 57
26 58
27 59
28 60
29 61
30 62
31 63
32 64
33 105
33 118
33 120
33 121
34 66
34 80
34 84
34 85
35 80
35 81
35 82
35 83
36 87
36 94
36 132
36 134
37 100
37 125
37 138
37 141
38 90
38 97
38 127
38 128
39 81
39 96
39 97
39 98
40 73
40 103
40 132
40 133
41 110
41 115
41 118
41 119
42 82
42 138
42 139
42 140
43 102
43 109
43 110
43 111
44 72
44 73
44 74
44 75
45 74
45 116
45 135
45 137
46 65
46 69
46 70
46 71
47 89
47 90
47 91
47 92
48 70
48 139
48 142
48 144
49 99
49 127
49 135
49 136
50 76
50 77
50 78
50 79
51 89
51 112
51 125
51 126
52 67
52 112
52 113
52 114
53 77
53 93
53 94
53 95
54 109
54 115
54 116
54 117
55 93
55 106
55 122
55 124
56 76
56 86
56 87
56 88
57 91
57 113
57 142
57 143
58 65
58 66
58 67
58 68
59 84
59 120
59 129
59 131
60 86
60 107
60 129
60 130
61 69
61 99
61 100
61 101
62 78
62 96
62 122
62 123
63 72
63 102
63 103
63 104
64 105
64 106
64 107
64 108
65 66
65 67
65 68
65 69
65 70
65 71
66 67
66 68
66 80
66 84
66 85
67 68
67 112
67 113
67 114
68 145
68 146
68 147
68 148
69 70
69 71
69 99
69 100
69 101
70 71
70 139
70 142
70 144
71 145
71 149
71 150
71 151
72 73
72 74
72 75
72 102
72 103
72 104
73 74
73 75
73 103
73 132
73 133
74 75
74 116
74 135
74 137
75 152
75 153
75 154
75 155
76 77
76 78
76 79
76 86
76 87
76 88
77 78
77 79
77 93
77 94
77 95
78 79
78 96
78 122
78 123
79 156
79 157
79 158
79 159
80 81
80 82
80 83
80 84
80 85
81 82
81 83
81 96
81 97
81 98
82 83
82 138
82 139
82 140
83 160
83 161
83 162
83 163
84 85
84 120
84 129
84 131
85 146
85 160
85 164
85 165
86 87
86 88
86 107
86 129
86 130
87 88
87 94
87 132
87 134
88 156
88 166
88 167
88 168
89 90
89 91
89 92
89 112
89 125
89 126
90 91
90 92
90 97
90 127
90 128
91 92
91 113
91 142
91 143
92 169
92 170
92 171
92 172
93 94
93 95
93 106
93 122
93 124
94 95
94 132
94 134
95 157
95 173
95 174
95 175
96 97
96 98
96 122
96 123
97 98
97 127
97 128
98 161
98 176
98 177
98 178
99 100
99 101
99 127
99 135
99 136
100 101
100 125
100 138
100 141
101 149
101 179
101 180
101 181
102 103
102 104
102 109
102 110
102 111
103 104
103 132
103 133
104 152
104 182
104 183
104 184
105 106
105 107
105 108
105 118
105 120
105 121
106 107
106 108
106 122
106 124
107 108
107 129
107 130
108 185
108 186
108 187
108 188
109 110
109 111
109 115
109 116
109 117
110 111
110 115
110 118
110 119
111 182
111 189
111 190
111 191
112 113
112 114
112 125
112 126
113 114
113 142
113 143
114 147
114 192
114 193
114 194
115 116
115 117
115 118
115 119
116 117
116 135
116 137
117 189
117 195
117 196
117 197
118 119
118 120
118 121
119 190
119 195
119 198
119 199
120 121
120 129
120 131
121 185
121 198
121 200
121 201
122 123
122 124
123 158
123 176
123 202
123 203
124 173
124 186
124 202
124 204
125 126
125 138
125 141
126 169
126 192
126 205
126 206
127 128
127 135
127 136
128 170
128 177
128 207
128 208
129 130
129 131
130 166
130 187
130 209
130 210
131 164
131 200
131 209
131 211
132 133
132 134
133 153
133 183
133 212
133 213
134 167
134 174
134 212
134 214
135 136
135 137
136 179
136 207
136 215
136 216
137 154
137 196
137 215
137 217
138 139
138 140
138 141
139 140
139 142
139 144
140 162
140 218
140 219
140 220
141 180
141 205
141 218
141 221
142 143
142 144
143 171
143 193
143 222
143 223
144 150
144 219
144 222
144 224
145 146
145 147
145 148
145 149
145 150
145 151
146 147
146 148
146 160
146 164
146 165
147 148
147 192
147 193
147 194
148 225
148 226
148 227
148 228
149 150
149 151
149 179
149 180
149 181
150 151
150 219
150 222
150 224
151 225
151 229
151 230
151 231
152 153
152 154
152 155
152 182
152 183
152 184
153 154
153 155
153 183
153 212
153 213
154 155
154 196
154 215
154 217
155 232
155 233
155 234
155 235
156 157
156 158
156 159
156 166
156 167
156 168
157 158
157 159
157 173
157 174
157 175
158 159
158 176
158 202
158 203
159 236
159 237
159 238
159 239
160 161
160 162
160 163
160 164
160 165
161 162
161 163
161 176
161 177
161 178
162 163
162 218
162 219
162 220
163 240
163 241
163 242
163 243
164 165
164 200
164 209
164 211
165 226
165 240
165 244
165 245
166 167
166 168
166 187
166 209
166 210
167 168
167 174
167 212
167 214
168 236
168 246
168 247
168 248
169 170
169 171
169 172
169 192
169 205
169 206
170 171
170 172
170 177
170 207
170 208
171 172
171 193
171 222
171 223
172 249
172 250
172 251
172 252
173 174
173 175
173 186
173 202
173 204
174 175
174 212
174 214
175 237
175 253
175 254
175 255
176 177
176 178
176 202
176 203
177 178
177 207
177 208
178 241
178 256
178 257
178 258
179 180
179 181
179 207
179 215
179 216
180 181
180 205
180 218
180 221
181 229
181 259
181 260
181 261
182 183
182 184
182 189
182 190
182 191
183 184
183 212
183 213
184 232
184 262
184 263
184 264
185 186
185 187
185 188
185 198
185 200
185 201
186 187
186 188
186 202
186 204
187 188
187 209
187 210
188 265
188 266
188 267
188 268
189 190
189 191
189 195
189 196
189 197
190 191
190 195
190 198
190 199
191 262
191 269
191 270
191 271
192 193
192 194
192 205
192 206
193 194
193 222
193 223
194 227
194 272
194 273
194 274
195 196
195 197
195 198
195 199
196 197
196 215
196 217
197 269
197 275
197 276
197 277
198 199
198 200
198 201
199 270
199 275
199 278
199 279
200 201
200 209
200 211
201 265
201 278
201 280
201 281
202 203
202 204
203 238
203 256
203 282
203 283
204 253
204 266
204 282
204 284
205 206
205 218
205 221
206 249
206 272
206 285
206 286
207 208
207 215
207 216
208 250
208 257
208 287
208 288
209 210
209 211
210 246
210 267
210 289
210 290
211 244
211 280
211 289
211 291
212 213
212 214
213 233
213 263
213 292
213 293
214 247
214 254
214 292
214 294
215 216
215 217
216 259
216 287
216 295
216 296
217 234
217 276
217 295
217 297
218 219
218 220
218 221
219 220
219 222
219 224
220 242
220 298
220 299
220 300
221 260
221 285
221 298
221 301
222 223
222 224
223 251
223 273
223 302
223 303
224 230
224 299
224 302
224 304
225 226
225 227
225 228
225 229
225 230
225 231
226 227
226 228
226 240
226 244
226 245
227 228
227 272
227 273
227 274
228 311
229 230
229 231
229 259
229 260
229 261
230 231
230 299
230 302
230 304
231 323
232 233
232 234
232 235
232 262
232 263
232 264
233 234
233 235
233 263
233 292
233 293
234 235
234 276
234 295
234 297
235 325
236 237
236 238
236 239
236 246
236 247
236 248
237 238
237 239
237 253
237 254
237 255
238 239
238 256
238 282
238 283
239 319
240 241
240 242
240 243
240 244
240 245
241 242
241 243
241 256
241 257
241 258
242 243
242 298
242 299
242 300
243 334
244 245
244 280
244 289
244 291
245 335
246 247
246 248
246 267
246 289
246 290
247 248
247 254
247 292
247 294
248 313
249 250
249 251
249 252
249 272
249 285
249 286
250 251
250 252
250 257
250 287
250 288
251 252
251 273
251 302
251 303
252 322
253 254
253 255
253 266
253 282
253 284
254 255
254 292
254 294
255 316
256 257
256 258
256 282
256 283
257 258
257 287
257 288
258 330
259 260
259 261
259 287
259 295
259 296
260 261
260 285
260 298
260 301
261 308
262 263
262 264
262 269
262 270
262 271
263 264
263 292
263 293
264 306
265 266
265 267
265 268
265 278
265 280
265 281
266 267
266 268
266 282
266 284
267 268
267 289
267 290
268 305
269 270
269 271
269 275
269 276
269 277
270 271
270 275
270 278
270 279
271 326
272 273
272 274
272 285
272 286
273 274
273 302
273 303
274 317
275 276
275 277
275 278
275 279
276 277
276 295
276 297
277 315
278 279
278 280
278 281
279 328
280 281
280 289
280 291
281 336
282 283
282 284
283 307
284 314
285 286
285 298
285 301
286 318
287 288
287 295
287 296
288 331
289 290
289 291
290 309
291 310
292 293
292 294
293 329
294 333
295 296
295 297
296 320
297 324
298 299
298 300
298 301
299 300
299 302
299 304
300 327
301 332
302 303
302 304
303 312
304 321
